
Log started (V11.0.0) Sun Apr 13 13:00:47 2008

Tried aggregator 1 time.
Reduced MIP has 150 rows, 5001 columns, and 10050 nonzeros.
Presolve time =    0.05 sec.
Clique table members: 100.
MIP emphasis: balance optimality and feasibility.
MIP search method: dynamic search.
Parallel mode: none, using 1 thread.
Root relaxation solution time =    0.12 sec.

        Nodes                                         Cuts/
   Node  Left     Objective  IInf  Best Integer     Best Node    ItCnt     Gap

*     0+    0                         5080.0000        5.7042      808   99.89%
*     0+    0                           10.0000        5.7042      808   42.96%
      0     0        7.1429    49       10.0000      Fract: 4      848   28.57%
*     0+    0                            9.0000        7.1429      848   20.63%
      0     0        8.0000    23        9.0000       Cuts: 8      868   11.11%
*     0+    0                            8.0000        8.0000      868    0.00%

Implied bound cuts applied:  2
Flow cuts applied:  6
Gomory fractional cuts applied:  1

Solution pool: 4 solutions saved.

MIP - Integer optimal solution:  Objective = 8.0000000000e+000
Solution time =    0.33 sec.  Iterations = 868  Nodes = 0


Incumbent solution
Variable Name           Solution Value
Cmax                          8.000000
X_1_16                        1.000000
X_2_23                        1.000000
X_3_8                         1.000000
X_4_5                         1.000000
X_5_25                        1.000000
X_6_48                        1.000000
X_7_26                        1.000000
X_8_19                        1.000000
X_9_21                        1.000000
X_10_22                       1.000000
X_11_14                       1.000000
X_12_44                       1.000000
X_13_18                       1.000000
X_14_24                       1.000000
X_15_46                       1.000000
X_16_41                       1.000000
X_17_4                        1.000000
X_18_27                       1.000000
X_19_22                       1.000000
X_20_38                       1.000000
X_21_40                       1.000000
X_22_39                       1.000000
X_23_49                       1.000000
X_24_1                        1.000000
X_25_50                       1.000000
X_26_47                       1.000000
X_27_27                       1.000000
X_28_33                       1.000000
X_29_6                        1.000000
X_30_46                       1.000000
X_31_26                       1.000000
X_32_29                       1.000000
X_33_49                       1.000000
X_34_17                       1.000000
X_35_39                       1.000000
X_36_50                       1.000000
X_37_39                       1.000000
X_38_48                       1.000000
X_39_39                       1.000000
X_40_12                       1.000000
X_41_2                        1.000000
X_42_34                       1.000000
X_43_2                        1.000000
X_44_6                        1.000000
X_45_7                        1.000000
X_46_23                       1.000000
X_47_42                       1.000000
X_48_9                        1.000000
X_49_16                       1.000000
X_50_44                       1.000000
X_51_25                       1.000000
X_52_4                        1.000000
X_53_43                       1.000000
X_54_37                       1.000000
X_55_14                       1.000000
X_56_30                       1.000000
X_57_16                       1.000000
X_58_7                        1.000000
X_59_12                       1.000000
X_60_7                        1.000000
X_61_9                        1.000000
X_62_36                       1.000000
X_63_41                       1.000000
X_64_3                        1.000000
X_65_5                        1.000000
X_66_31                       1.000000
X_67_31                       1.000000
X_68_33                       1.000000
X_69_11                       1.000000
X_70_32                       1.000000
X_71_28                       1.000000
X_72_15                       1.000000
X_73_7                        1.000000
X_74_32                       1.000000
X_75_50                       1.000000
X_76_14                       1.000000
X_77_34                       1.000000
X_78_47                       1.000000
X_79_49                       1.000000
X_80_40                       1.000000
X_81_38                       1.000000
X_82_32                       1.000000
X_83_25                       1.000000
X_84_36                       1.000000
X_85_7                        1.000000
X_86_30                       1.000000
X_87_35                       1.000000
X_88_11                       1.000000
X_89_24                       1.000000
X_90_10                       1.000000
X_91_45                       1.000000
X_92_10                       1.000000
X_93_13                       1.000000
X_94_47                       1.000000
X_95_13                       1.000000
X_96_50                       1.000000
X_97_46                       1.000000
X_98_20                       1.000000
X_99_23                       1.000000
X_100_44                      1.000000
All other variables in the range 1-5001 are 0.
